;symbolic execution tree
(push)
(assert (le x1 java.lang.String))
(check-sat)
(push)
(assert (le x2 java.lang.String))
(check-sat)
(push)
(assert (le x1 java.lang.String))
(check-sat)
(pop)
(push)
(assert (not (le x1 java.lang.String)))
(check-sat)
(pop)
(pop)
(push)
(assert (not (le x2 java.lang.String)))
(check-sat)
(push)
(assert (le x3 weka.core.Instances))
(check-sat)
(pop)
(push)
(assert (not (le x3 weka.core.Instances)))
(check-sat)
(pop)
(pop)
(pop)
(push)
(assert (not (le x1 java.lang.String)))
(check-sat)
(push)
(assert (le x2 weka.core.ProtectedProperties))
(check-sat)
(push)
(assert (le x0 weka.core.Instances))
(check-sat)
(pop)
(push)
(assert (not (le x0 weka.core.Instances)))
(check-sat)
(pop)
(push)
(assert (le x1 java.lang.String))
(check-sat)
(pop)
(push)
(assert (not (le x1 java.lang.String)))
(check-sat)
(pop)
(push)
(assert (le x0 java.util.Vector))
(check-sat)
(push)
(assert (le x1 java.lang.String))
(check-sat)
(pop)
(push)
(assert (not (le x1 java.lang.String)))
(check-sat)
(pop)
(push)
(assert (le x1 java.lang.String))
(check-sat)
(pop)
(push)
(assert (not (le x1 java.lang.String)))
(check-sat)
(push)
(assert (le x0 java.util.Vector))
(check-sat)
(pop)
(push)
(assert (not (le x0 java.util.Vector)))
(check-sat)
(pop)
(pop)
(pop)
(push)
(assert (not (le x0 java.util.Vector)))
(check-sat)
(pop)
(pop)
(push)
(assert (not (le x2 weka.core.ProtectedProperties)))
(check-sat)
(pop)
(push)
(assert (le x2 weka.core.Instances))
(check-sat)
(pop)
(push)
(assert (not (le x2 weka.core.Instances)))
(check-sat)
(push)
(assert (le x2 weka.core.Instances))
(check-sat)
(pop)
(push)
(assert (not (le x2 weka.core.Instances)))
(check-sat)
(push)
(assert (le x1 java.lang.String))
(check-sat)
(pop)
(push)
(assert (not (le x1 java.lang.String)))
(check-sat)
(push)
(assert (le x3 weka.core.Instances))
(check-sat)
(pop)
(push)
(assert (not (le x3 weka.core.Instances)))
(check-sat)
(pop)
(pop)
(pop)
(pop)
(push)
(assert (le x0 weka.core.Instances))
(check-sat)
(push)
(assert (le x3 weka.core.Instances))
(check-sat)
(push)
(assert (le x1 java.lang.String))
(check-sat)
(pop)
(push)
(assert (not (le x1 java.lang.String)))
(check-sat)
(pop)
(push)
(assert (le x2 weka.core.Instances))
(check-sat)
(pop)
(push)
(assert (not (le x2 weka.core.Instances)))
(check-sat)
(push)
(assert (le x0 weka.core.Instances))
(check-sat)
(pop)
(push)
(assert (not (le x0 weka.core.Instances)))
(check-sat)
(pop)
(pop)
(pop)
(push)
(assert (not (le x3 weka.core.Instances)))
(check-sat)
(push)
(assert (le x2 weka.core.matrix.Matrix))
(check-sat)
(pop)
(push)
(assert (not (le x2 weka.core.matrix.Matrix)))
(check-sat)
(pop)
(push)
(assert (le x0 weka.core.Instances))
(check-sat)
(pop)
(push)
(assert (not (le x0 weka.core.Instances)))
(check-sat)
(pop)
(pop)
(push)
(assert (le x2 weka.core.Instances))
(check-sat)
(pop)
(push)
(assert (not (le x2 weka.core.Instances)))
(check-sat)
(pop)
(push)
(assert (le x2 weka.core.AttributeLocator))
(check-sat)
(pop)
(push)
(assert (not (le x2 weka.core.AttributeLocator)))
(check-sat)
(push)
(assert (le x2 weka.core.AttributeLocator))
(check-sat)
(pop)
(push)
(assert (not (le x2 weka.core.AttributeLocator)))
(check-sat)
(pop)
(pop)
(push)
(assert (le x2 weka.core.Instance))
(check-sat)
(pop)
(push)
(assert (not (le x2 weka.core.Instance)))
(check-sat)
(push)
(assert (le x3 weka.core.Queue_currencysign_QueueNode))
(check-sat)
(pop)
(push)
(assert (not (le x3 weka.core.Queue_currencysign_QueueNode)))
(check-sat)
(pop)
(pop)
(pop)
(push)
(assert (not (le x0 weka.core.Instances)))
(check-sat)
(push)
(assert (le x1 java.lang.String))
(check-sat)
(pop)
(push)
(assert (not (le x1 java.lang.String)))
(check-sat)
(pop)
(push)
(assert (le x1 java.lang.String))
(check-sat)
(pop)
(push)
(assert (not (le x1 java.lang.String)))
(check-sat)
(push)
(assert (le x3 weka.core.Instance))
(check-sat)
(pop)
(push)
(assert (not (le x3 weka.core.Instance)))
(check-sat)
(pop)
(pop)
(pop)
(push)
(assert (le x1 java.lang.String))
(check-sat)
(pop)
(push)
(assert (not (le x1 java.lang.String)))
(check-sat)
(push)
(assert (le x3 weka.core.ProtectedProperties))
(check-sat)
(push)
(assert (le x3 java.util.Properties))
(check-sat)
(push)
(assert (le x1 java.lang.String))
(check-sat)
(pop)
(push)
(assert (not (le x1 java.lang.String)))
(check-sat)
(pop)
(pop)
(push)
(assert (not (le x3 java.util.Properties)))
(check-sat)
(pop)
(pop)
(push)
(assert (not (le x3 weka.core.ProtectedProperties)))
(check-sat)
(push)
(assert (le x2 java.lang.Boolean))
(check-sat)
(pop)
(push)
(assert (not (le x2 java.lang.Boolean)))
(check-sat)
(push)
(assert (le x1 java.lang.String))
(check-sat)
(pop)
(push)
(assert (not (le x1 java.lang.String)))
(check-sat)
(pop)
(pop)
(pop)
(push)
(assert (le x1 java.lang.String))
(check-sat)
(pop)
(push)
(assert (not (le x1 java.lang.String)))
(check-sat)
(push)
(assert (le x1 java.lang.String))
(check-sat)
(pop)
(push)
(assert (not (le x1 java.lang.String)))
(check-sat)
(pop)
(push)
(assert (le x3 weka.core.FastVector))
(check-sat)
(pop)
(push)
(assert (not (le x3 weka.core.FastVector)))
(check-sat)
(push)
(assert (le x1 java.lang.String))
(check-sat)
(pop)
(push)
(assert (not (le x1 java.lang.String)))
(check-sat)
(pop)
(push)
(assert (le x2 weka.core.Queue_currencysign_QueueNode))
(check-sat)
(pop)
(push)
(assert (not (le x2 weka.core.Queue_currencysign_QueueNode)))
(check-sat)
(pop)
(pop)
(push)
(assert (le x0 weka.core.Queue_currencysign_QueueNode))
(check-sat)
(pop)
(push)
(assert (not (le x0 weka.core.Queue_currencysign_QueueNode)))
(check-sat)
(pop)
(push)
(assert (le x2 weka.core.Queue_currencysign_QueueNode))
(check-sat)
(pop)
(push)
(assert (not (le x2 weka.core.Queue_currencysign_QueueNode)))
(check-sat)
(push)
(assert (le x0 weka.core.Instance))
(check-sat)
(pop)
(push)
(assert (not (le x0 weka.core.Instance)))
(check-sat)
(pop)
(pop)
(push)
(assert (le x2 weka.core.Instances))
(check-sat)
(pop)
(push)
(assert (not (le x2 weka.core.Instances)))
(check-sat)
(push)
(assert (le x3 weka.core.Instances))
(check-sat)
(pop)
(push)
(assert (not (le x3 weka.core.Instances)))
(check-sat)
(pop)
(pop)
(push)
(assert (le x2 weka.core.Instances))
(check-sat)
(pop)
(push)
(assert (not (le x2 weka.core.Instances)))
(check-sat)
(pop)
(push)
(assert (le x2 weka.core.Instances))
(check-sat)
(pop)
(push)
(assert (not (le x2 weka.core.Instances)))
(check-sat)
(pop)
(pop)
(push)
(assert (le x0 weka.core.Instance))
(check-sat)
(pop)
(push)
(assert (not (le x0 weka.core.Instance)))
(check-sat)
(pop)
(push)
(assert (le x1 java.lang.String))
(check-sat)
(pop)
(push)
(assert (not (le x1 java.lang.String)))
(check-sat)
(pop)
(pop)
(push)
(assert (le x0 weka.core.AttributeLocator))
(check-sat)
(pop)
(push)
(assert (not (le x0 weka.core.AttributeLocator)))
(check-sat)
(push)
(assert (le x1 java.lang.String))
(check-sat)
(pop)
(push)
(assert (not (le x1 java.lang.String)))
(check-sat)
(pop)
(push)
(assert (le x2 java.lang.String))
(check-sat)
(pop)
(push)
(assert (not (le x2 java.lang.String)))
(check-sat)
(pop)
(pop)
(push)
(assert (le x3 weka.core.Instances))
(check-sat)
(push)
(assert (le x1 java.lang.String))
(check-sat)
(pop)
(push)
(assert (not (le x1 java.lang.String)))
(check-sat)
(pop)
(pop)
(push)
(assert (not (le x3 weka.core.Instances)))
(check-sat)
(push)
(assert (le x0 weka.core.Queue))
(check-sat)
(pop)
(push)
(assert (not (le x0 weka.core.Queue)))
(check-sat)
(push)
(assert (le x2 java.lang.String))
(check-sat)
(pop)
(push)
(assert (not (le x2 java.lang.String)))
(check-sat)
(pop)
(pop)
(push)
(assert (le x0 java.lang.StringBuilder))
(check-sat)
(pop)
(push)
(assert (not (le x0 java.lang.StringBuilder)))
(check-sat)
(pop)
(pop)
(push)
(assert (le x3 weka.core.Instances))
(check-sat)
(pop)
(push)
(assert (not (le x3 weka.core.Instances)))
(check-sat)
(pop)
(push)
(assert (le x0 weka.core.Instances))
(check-sat)
(pop)
(push)
(assert (not (le x0 weka.core.Instances)))
(check-sat)
(push)
(assert (le x1 java.lang.String))
(check-sat)
(pop)
(push)
(assert (not (le x1 java.lang.String)))
(check-sat)
(pop)
(pop)
(push)
(assert (le x3 java.lang.String))
(check-sat)
(pop)
(push)
(assert (not (le x3 java.lang.String)))
(check-sat)
(pop)
(push)
(assert (le x3 java.lang.String))
(check-sat)
(push)
(assert (le x0 java.lang.String))
(check-sat)
(push)
(assert (le x3 java.lang.String))
(check-sat)
(pop)
(push)
(assert (not (le x3 java.lang.String)))
(check-sat)
(pop)
(pop)
(push)
(assert (not (le x0 java.lang.String)))
(check-sat)
(push)
(assert (le x2 java.lang.Boolean))
(check-sat)
(pop)
(push)
(assert (not (le x2 java.lang.Boolean)))
(check-sat)
(pop)
(push)
(assert (le x0 java.lang.String))
(check-sat)
(pop)
(push)
(assert (not (le x0 java.lang.String)))
(check-sat)
(push)
(assert (le x0 java.lang.String))
(check-sat)
(pop)
(push)
(assert (not (le x0 java.lang.String)))
(check-sat)
(pop)
(pop)
(push)
(assert (le x3 java.lang.String))
(check-sat)
(push)
(assert (le x0 java.lang.String))
(check-sat)
(pop)
(push)
(assert (not (le x0 java.lang.String)))
(check-sat)
(pop)
(pop)
(push)
(assert (not (le x3 java.lang.String)))
(check-sat)
(pop)
(push)
(assert (le x2 java.lang.String))
(check-sat)
(push)
(assert (le x3 java.lang.String))
(check-sat)
(pop)
(push)
(assert (not (le x3 java.lang.String)))
(check-sat)
(pop)
(pop)
(push)
(assert (not (le x2 java.lang.String)))
(check-sat)
(push)
(assert (le x3 java.lang.String))
(check-sat)
(pop)
(push)
(assert (not (le x3 java.lang.String)))
(check-sat)
(pop)
(pop)
(push)
(assert (le x1 java.lang.String))
(check-sat)
(pop)
(push)
(assert (not (le x1 java.lang.String)))
(check-sat)
(pop)
(push)
(assert (le x2 java.util.Vector))
(check-sat)
(pop)
(push)
(assert (not (le x2 java.util.Vector)))
(check-sat)
(pop)
(pop)
(push)
(assert (le x1 java.lang.String))
(check-sat)
(pop)
(push)
(assert (not (le x1 java.lang.String)))
(check-sat)
(pop)
(push)
(assert (le x0 weka.core.Instance))
(check-sat)
(pop)
(push)
(assert (not (le x0 weka.core.Instance)))
(check-sat)
(pop)
(push)
(assert (le x2 weka.core.Instances))
(check-sat)
(pop)
(push)
(assert (not (le x2 weka.core.Instances)))
(check-sat)
(push)
(assert (le x2 weka.core.Instances))
(check-sat)
(pop)
(push)
(assert (not (le x2 weka.core.Instances)))
(check-sat)
(pop)
(pop)
(pop)
(push)
(assert (not (le x3 java.lang.String)))
(check-sat)
(pop)
(push)
(assert (le x2 weka.core.Instance))
(check-sat)
(pop)
(push)
(assert (not (le x2 weka.core.Instance)))
(check-sat)
(pop)
(push)
(assert (le x0 weka.core.AttributeLocator))
(check-sat)
(pop)
(push)
(assert (not (le x0 weka.core.AttributeLocator)))
(check-sat)
(push)
(assert (le x0 weka.core.AttributeLocator))
(check-sat)
(pop)
(push)
(assert (not (le x0 weka.core.AttributeLocator)))
(check-sat)
(pop)
(pop)
(push)
(assert (le x2 weka.core.Instance))
(check-sat)
(push)
(assert (le x1 java.lang.String))
(check-sat)
(pop)
(push)
(assert (not (le x1 java.lang.String)))
(check-sat)
(push)
(assert (le x0 java.util.Vector))
(check-sat)
(pop)
(push)
(assert (not (le x0 java.util.Vector)))
(check-sat)
(push)
(assert (le x1 java.lang.String))
(check-sat)
(pop)
(push)
(assert (not (le x1 java.lang.String)))
(check-sat)
(pop)
(pop)
(pop)
(push)
(assert (le x1 java.lang.String))
(check-sat)
(pop)
(push)
(assert (not (le x1 java.lang.String)))
(check-sat)
(pop)
(pop)
(push)
(assert (not (le x2 weka.core.Instance)))
(check-sat)
(push)
(assert (le x0 weka.estimators.KernelEstimator))
(check-sat)
(pop)
(push)
(assert (not (le x0 weka.estimators.KernelEstimator)))
(check-sat)
(pop)
(push)
(assert (le x0 weka.core.FastVector))
(check-sat)
(push)
(assert (not (le x1 weka.core.SerializedObject)))
(check-sat)
(pop)
(push)
(assert (le x1 weka.core.SerializedObject))
(check-sat)
(push)
(assert (le x2 weka.core.Instance))
(check-sat)
(pop)
(push)
(assert (not (le x2 weka.core.Instance)))
(check-sat)
(pop)
(pop)
(pop)
(push)
(assert (not (le x0 weka.core.FastVector)))
(check-sat)
(push)
(assert (le x1 java.lang.String))
(check-sat)
(pop)
(push)
(assert (not (le x1 java.lang.String)))
(check-sat)
(pop)
(pop)
(pop)
(push)
(assert (le x2 weka.core.Instances))
(check-sat)
(push)
(assert (le x1 java.lang.String))
(check-sat)
(pop)
(push)
(assert (not (le x1 java.lang.String)))
(check-sat)
(pop)
(push)
(assert (le x0 weka.core.Instance))
(check-sat)
(pop)
(push)
(assert (not (le x0 weka.core.Instance)))
(check-sat)
(push)
(assert (le x3 java.lang.String))
(check-sat)
(pop)
(push)
(assert (not (le x3 java.lang.String)))
(check-sat)
(pop)
(push)
(assert (le x1 java.lang.String))
(check-sat)
(pop)
(push)
(assert (not (le x1 java.lang.String)))
(check-sat)
(push)
(assert (le x1 java.lang.String))
(check-sat)
(pop)
(push)
(assert (not (le x1 java.lang.String)))
(check-sat)
(pop)
(pop)
(push)
(assert (le x2 weka.core.Instances))
(check-sat)
(pop)
(push)
(assert (not (le x2 weka.core.Instances)))
(check-sat)
(pop)
(pop)
(pop)
(push)
(assert (not (le x2 weka.core.Instances)))
(check-sat)
(push)
(assert (le x3 weka.core.Instances))
(check-sat)
(pop)
(push)
(assert (not (le x3 weka.core.Instances)))
(check-sat)
(pop)
(pop)
(push)
(assert (le x3 weka.core.Instance))
(check-sat)
(push)
(assert (le x2 weka.estimators.KernelEstimator))
(check-sat)
(push)
(assert (le x2 weka.estimators.KernelEstimator))
(check-sat)
(pop)
(push)
(assert (not (le x2 weka.estimators.KernelEstimator)))
(check-sat)
(pop)
(pop)
(push)
(assert (not (le x2 weka.estimators.KernelEstimator)))
(check-sat)
(pop)
(push)
(assert (le x0 java.lang.String))
(check-sat)
(push)
(assert (le x0 java.lang.String))
(check-sat)
(pop)
(push)
(assert (not (le x0 java.lang.String)))
(check-sat)
(pop)
(pop)
(push)
(assert (not (le x0 java.lang.String)))
(check-sat)
(push)
(assert (le x2 java.lang.String))
(check-sat)
(pop)
(push)
(assert (not (le x2 java.lang.String)))
(check-sat)
(pop)
(push)
(assert (not (le x3 weka.core.SparseInstance)))
(check-sat)
(push)
(assert (le x3 weka.core.Instance))
(check-sat)
(pop)
(pop)
(push)
(assert (le x3 weka.core.SparseInstance))
(check-sat)
(pop)
(push)
(assert (le x2 java.lang.String))
(check-sat)
(pop)
(push)
(assert (not (le x2 java.lang.String)))
(check-sat)
(pop)
(pop)
(push)
(assert (le x0 weka.core.Instance))
(check-sat)
(pop)
(push)
(assert (not (le x0 weka.core.Instance)))
(check-sat)
(pop)
(push)
(assert (le x2 weka.core.Instances))
(check-sat)
(push)
(assert (le x2 weka.core.Instances))
(check-sat)
(pop)
(push)
(assert (not (le x2 weka.core.Instances)))
(check-sat)
(pop)
(pop)
(push)
(assert (not (le x2 weka.core.Instances)))
(check-sat)
(pop)
(push)
(assert (le x0 weka.core.Instance))
(check-sat)
(pop)
(push)
(assert (not (le x0 weka.core.Instance)))
(check-sat)
(pop)
(push)
(assert (le x0 java.util.Vector))
(check-sat)
(push)
(assert (le x2 java.util.Vector))
(check-sat)
(pop)
(push)
(assert (not (le x2 java.util.Vector)))
(check-sat)
(pop)
(pop)
(push)
(assert (not (le x0 java.util.Vector)))
(check-sat)
(push)
(assert (le x2 weka.core.Instance))
(check-sat)
(pop)
(push)
(assert (not (le x2 weka.core.Instance)))
(check-sat)
(pop)
(pop)
(pop)
(push)
(assert (not (le x3 weka.core.Instance)))
(check-sat)
(pop)
(pop)
